db/data/149302610919476226642767535262865112815.z3.out
-------------------
2500.132245911
